c CNF file corresponding to a (partial) station packing problem.
p cnf 1067 229
1 2 3 4 5 6 7 8 9 10 11 12 13 14 0
-1 -2 0
-1 -3 0
-1 -4 0
-1 -5 0
-1 -6 0
-1 -7 0
-1 -8 0
-1 -9 0
-1 -10 0
-1 -11 0
-1 -12 0
-1 -13 0
-1 -14 0
-2 -3 0
-2 -4 0
-2 -5 0
-2 -6 0
-2 -7 0
-2 -8 0
-2 -9 0
-2 -10 0
-2 -11 0
-2 -12 0
-2 -13 0
-2 -14 0
-3 -4 0
-3 -5 0
-3 -6 0
-3 -7 0
-3 -8 0
-3 -9 0
-3 -10 0
-3 -11 0
-3 -12 0
-3 -13 0
-3 -14 0
-4 -5 0
-4 -6 0
-4 -7 0
-4 -8 0
-4 -9 0
-4 -10 0
-4 -11 0
-4 -12 0
-4 -13 0
-4 -14 0
-5 -6 0
-5 -7 0
-5 -8 0
-5 -9 0
-5 -10 0
-5 -11 0
-5 -12 0
-5 -13 0
-5 -14 0
-6 -7 0
-6 -8 0
-6 -9 0
-6 -10 0
-6 -11 0
-6 -12 0
-6 -13 0
-6 -14 0
-7 -8 0
-7 -9 0
-7 -10 0
-7 -11 0
-7 -12 0
-7 -13 0
-7 -14 0
-8 -9 0
-8 -10 0
-8 -11 0
-8 -12 0
-8 -13 0
-8 -14 0
-9 -10 0
-9 -11 0
-9 -12 0
-9 -13 0
-9 -14 0
-10 -11 0
-10 -12 0
-10 -13 0
-10 -14 0
-11 -12 0
-11 -13 0
-11 -14 0
-12 -13 0
-12 -14 0
-13 -14 0
1051 1052 1053 1054 1055 1056 1057 1058 1059 1060 1061 1062 1063 1064 1065 1066 1067 0
-1051 -1052 0
-1051 -1053 0
-1051 -1054 0
-1051 -1055 0
-1051 -1056 0
-1051 -1057 0
-1051 -1058 0
-1051 -1059 0
-1051 -1060 0
-1051 -1061 0
-1051 -1062 0
-1051 -1063 0
-1051 -1064 0
-1051 -1065 0
-1051 -1066 0
-1051 -1067 0
-1052 -1053 0
-1052 -1054 0
-1052 -1055 0
-1052 -1056 0
-1052 -1057 0
-1052 -1058 0
-1052 -1059 0
-1052 -1060 0
-1052 -1061 0
-1052 -1062 0
-1052 -1063 0
-1052 -1064 0
-1052 -1065 0
-1052 -1066 0
-1052 -1067 0
-1053 -1054 0
-1053 -1055 0
-1053 -1056 0
-1053 -1057 0
-1053 -1058 0
-1053 -1059 0
-1053 -1060 0
-1053 -1061 0
-1053 -1062 0
-1053 -1063 0
-1053 -1064 0
-1053 -1065 0
-1053 -1066 0
-1053 -1067 0
-1054 -1055 0
-1054 -1056 0
-1054 -1057 0
-1054 -1058 0
-1054 -1059 0
-1054 -1060 0
-1054 -1061 0
-1054 -1062 0
-1054 -1063 0
-1054 -1064 0
-1054 -1065 0
-1054 -1066 0
-1054 -1067 0
-1055 -1056 0
-1055 -1057 0
-1055 -1058 0
-1055 -1059 0
-1055 -1060 0
-1055 -1061 0
-1055 -1062 0
-1055 -1063 0
-1055 -1064 0
-1055 -1065 0
-1055 -1066 0
-1055 -1067 0
-1056 -1057 0
-1056 -1058 0
-1056 -1059 0
-1056 -1060 0
-1056 -1061 0
-1056 -1062 0
-1056 -1063 0
-1056 -1064 0
-1056 -1065 0
-1056 -1066 0
-1056 -1067 0
-1057 -1058 0
-1057 -1059 0
-1057 -1060 0
-1057 -1061 0
-1057 -1062 0
-1057 -1063 0
-1057 -1064 0
-1057 -1065 0
-1057 -1066 0
-1057 -1067 0
-1058 -1059 0
-1058 -1060 0
-1058 -1061 0
-1058 -1062 0
-1058 -1063 0
-1058 -1064 0
-1058 -1065 0
-1058 -1066 0
-1058 -1067 0
-1059 -1060 0
-1059 -1061 0
-1059 -1062 0
-1059 -1063 0
-1059 -1064 0
-1059 -1065 0
-1059 -1066 0
-1059 -1067 0
-1060 -1061 0
-1060 -1062 0
-1060 -1063 0
-1060 -1064 0
-1060 -1065 0
-1060 -1066 0
-1060 -1067 0
-1061 -1062 0
-1061 -1063 0
-1061 -1064 0
-1061 -1065 0
-1061 -1066 0
-1061 -1067 0
-1062 -1063 0
-1062 -1064 0
-1062 -1065 0
-1062 -1066 0
-1062 -1067 0
-1063 -1064 0
-1063 -1065 0
-1063 -1066 0
-1063 -1067 0
-1064 -1065 0
-1064 -1066 0
-1064 -1067 0
-1065 -1066 0
-1065 -1067 0
-1066 -1067 0
